data/evidence/ss_sat/proofs/scaled_cadical_drat/xor_parity_8_unsat.cadical.drat
-2 -8 7 5 4 3 6 0
6 -8 7 5 4 3 0
2 -8 -7 6 4 3 5 0
5 -8 6 4 3 0
-1 -8 3 4 -7 -6 5 0
5 -8 3 -7 -6 4 0
1 -8 7 5 4 3 -6 0
5 -8 3 4 0
-1 -8 7 5 4 -3 -6 0
-6 -8 7 5 4 -3 0
1 -8 7 5 4 -3 6 0
-3 -8 7 5 4 0
-1 -8 6 4 -3 -7 5 0
5 -8 6 4 -7 -3 0
1 -8 -3 5 -6 -7 4 0
5 -8 4 0
-1 -8 -7 -3 5 -6 -4 0
-4 -8 -7 -6 -3 5 0
1 -8 -7 -4 3 -6 5 0
5 -8 -7 -6 -4 0
-1 -8 -7 6 -4 5 3 0
3 -8 6 -7 -4 5 0
1 -8 -7 6 5 -4 -3 0
5 -8 -7 -4 0
-1 -8 7 5 -4 6 -3 0
-3 -8 7 5 -4 6 0
1 -8 7 5 -4 -6 -3 0
-3 -8 7 5 -4 0
-1 -8 7 5 -6 -4 3 0
3 -8 7 5 -4 -6 0
1 -8 7 5 -4 6 3 0
5 -8 0
-1 -8 7 -5 3 -4 6 0
6 -8 7 3 -5 -4 0
1 -8 7 -5 3 4 6 0
6 -8 7 -5 3 0
-1 -8 6 4 3 -7 -5 0
-5 -8 6 4 -7 3 0
1 -8 6 -4 -5 -7 3 0
3 -8 6 -5 0
-1 -8 6 -7 -5 -4 -3 0
-3 -8 -7 6 -4 -5 0
1 -8 6 -7 4 -3 -5 0
-3 -8 6 -7 -5 0
-1 -8 7 -3 -5 6 4 0
4 -8 7 -5 -3 6 0
1 -8 7 -5 -3 6 -4 0
-5 -8 6 0
-1 -8 7 -3 -5 -6 -4 0
-4 -8 7 -5 -3 -6 0
1 -8 7 -5 -4 3 -6 0
-6 -8 7 -5 -4 0
-1 -8 -4 3 -6 -7 -5 0
-5 -8 -6 3 -7 -4 0
1 -8 -6 -3 -7 -5 -4 0
-4 -8 -5 -6 0
-1 -8 -6 -3 -5 -7 4 0
4 -8 -7 -6 -3 -5 0
1 -8 7 -3 -5 -6 4 0
4 -8 -6 -3 -5 0
-1 -8 7 3 4 -5 -6 0
-6 -8 7 -5 3 4 0
1 -8 -6 4 3 -7 -5 0
-8 0
-1 -7 8 4 3 -6 -5 0
-6 -7 8 -5 3 4 0
1 -7 8 4 3 -6 5 0
-6 -7 8 3 4 0
-1 -7 8 5 -6 3 -4 0
3 -7 8 5 -4 -6 0
1 -7 8 -5 3 -6 -4 0
-6 -7 8 3 0
-1 -7 8 -5 -3 -6 -4 0
-4 -7 8 -3 -5 -6 0
1 -7 8 -5 -3 -6 4 0
-6 -7 8 -5 -3 0
-1 -7 8 5 4 -6 -3 0
-6 -7 8 5 4 -3 0
1 -7 8 5 -6 -3 -4 0
-6 -7 8 0
-1 -7 8 5 -4 6 -3 0
-3 -7 8 5 -4 6 0
1 -7 8 5 -4 6 3 0
6 -7 8 5 -4 0
-1 -7 8 -4 3 6 -5 0
6 -7 8 3 -5 -4 0
1 -7 8 -4 -5 6 -3 0
6 -7 8 -4 0
-1 -7 8 -3 6 4 -5 0
4 -7 8 -5 -3 6 0
1 -7 8 -3 6 4 5 0
4 -7 8 -3 6 0
-1 -7 8 5 4 3 6 0
6 -7 8 5 4 3 0
1 -7 8 4 3 6 -5 0
-7 8 0
-7 0
-1 -5 7 8 4 3 6 0
6 -5 7 8 4 3 0
1 -5 7 8 4 3 -6 0
3 -5 7 8 4 0
-1 -5 7 8 -6 3 -4 0
3 -5 7 8 -4 -6 0
1 -5 7 8 3 -4 6 0
3 -5 7 8 0
-1 -5 7 8 6 -3 -4 0
-3 -5 7 8 -4 6 0
1 -5 7 8 6 -3 4 0
6 -5 7 8 -3 0
-1 -5 7 8 4 -6 -3 0
-3 -5 7 8 4 -6 0
1 -5 7 8 -3 -6 -4 0
-5 8 7 0
-5 0
-1 -4 7 5 8 -6 -3 0
-6 -4 7 5 8 -3 0
1 -4 7 5 8 -6 3 0
-6 -4 7 5 8 0
-1 -4 7 5 8 3 6 0
3 -4 7 5 8 6 0
1 -4 7 5 8 6 -3 0
-4 8 7 5 0
-4 0
-1 -3 7 5 4 8 6 0
6 -3 7 5 4 8 0
1 -3 7 5 4 8 -6 0
-3 8 7 5 4 0
-3 0
-1 -6 7 5 4 3 8 0
-6 8 7 5 4 3 0
-6 0
1 8 7 5 4 3 6 0
1 0
2 0
0
d -2 -8 7 5 4 3 6 0
d 6 -8 7 5 4 3 0
d 2 -8 -7 6 4 3 5 0
d 5 -8 6 4 3 0
d -1 -8 3 4 -7 -6 5 0
d 5 -8 3 -7 -6 4 0
d 1 -8 7 5 4 3 -6 0
d 5 -8 3 4 0
d -1 -8 7 5 4 -3 -6 0
d -6 -8 7 5 4 -3 0
d 1 -8 7 5 4 -3 6 0
d -3 -8 7 5 4 0
d -1 -8 6 4 -3 -7 5 0
d 5 -8 6 4 -7 -3 0
d 1 -8 -3 5 -6 -7 4 0
d 5 -8 4 0
d -1 -8 -7 -3 5 -6 -4 0
d -4 -8 -7 -6 -3 5 0
d 1 -8 -7 -4 3 -6 5 0
d 5 -8 -7 -6 -4 0
d -1 -8 -7 6 -4 5 3 0
d 3 -8 6 -7 -4 5 0
d 1 -8 -7 6 5 -4 -3 0
d 5 -8 -7 -4 0
d -1 -8 7 5 -4 6 -3 0
d -3 -8 7 5 -4 6 0
d 1 -8 7 5 -4 -6 -3 0
d -3 -8 7 5 -4 0
d -1 -8 7 5 -6 -4 3 0
d 3 -8 7 5 -4 -6 0
d 1 -8 7 5 -4 6 3 0
d 5 -8 0
d -1 -8 7 -5 3 -4 6 0
d 6 -8 7 3 -5 -4 0
d 1 -8 7 -5 3 4 6 0
d 6 -8 7 -5 3 0
d -1 -8 6 4 3 -7 -5 0
d -5 -8 6 4 -7 3 0
d 1 -8 6 -4 -5 -7 3 0
d 3 -8 6 -5 0
d -1 -8 6 -7 -5 -4 -3 0
d -3 -8 -7 6 -4 -5 0
d 1 -8 6 -7 4 -3 -5 0
d -3 -8 6 -7 -5 0
d -1 -8 7 -3 -5 6 4 0
d 4 -8 7 -5 -3 6 0
d 1 -8 7 -5 -3 6 -4 0
d -5 -8 6 0
d -1 -8 7 -3 -5 -6 -4 0
d -4 -8 7 -5 -3 -6 0
d 1 -8 7 -5 -4 3 -6 0
d -6 -8 7 -5 -4 0
d -1 -8 -4 3 -6 -7 -5 0
d -5 -8 -6 3 -7 -4 0
d 1 -8 -6 -3 -7 -5 -4 0
d -4 -8 -5 -6 0
d -1 -8 -6 -3 -5 -7 4 0
d 4 -8 -7 -6 -3 -5 0
d 1 -8 7 -3 -5 -6 4 0
d 4 -8 -6 -3 -5 0
d -1 -8 7 3 4 -5 -6 0
d -6 -8 7 -5 3 4 0
d 1 -8 -6 4 3 -7 -5 0
d -1 -7 8 4 3 -6 -5 0
d -6 -7 8 -5 3 4 0
d 1 -7 8 4 3 -6 5 0
d -6 -7 8 3 4 0
d -1 -7 8 5 -6 3 -4 0
d 3 -7 8 5 -4 -6 0
d 1 -7 8 -5 3 -6 -4 0
d -6 -7 8 3 0
d -1 -7 8 -5 -3 -6 -4 0
d -4 -7 8 -3 -5 -6 0
d 1 -7 8 -5 -3 -6 4 0
d -6 -7 8 -5 -3 0
d -1 -7 8 5 4 -6 -3 0
d -6 -7 8 5 4 -3 0
d 1 -7 8 5 -6 -3 -4 0
d -6 -7 8 0
d -1 -7 8 5 -4 6 -3 0
d -3 -7 8 5 -4 6 0
d 1 -7 8 5 -4 6 3 0
d 6 -7 8 5 -4 0
d -1 -7 8 -4 3 6 -5 0
d 6 -7 8 3 -5 -4 0
d 1 -7 8 -4 -5 6 -3 0
d 6 -7 8 -4 0
d -1 -7 8 -3 6 4 -5 0
d 4 -7 8 -5 -3 6 0
d 1 -7 8 -3 6 4 5 0
d 4 -7 8 -3 6 0
d -1 -7 8 5 4 3 6 0
d 6 -7 8 5 4 3 0
d 1 -7 8 4 3 6 -5 0
d -7 8 0
d -1 -5 7 8 4 3 6 0
d 6 -5 7 8 4 3 0
d 1 -5 7 8 4 3 -6 0
d 3 -5 7 8 4 0
d -1 -5 7 8 -6 3 -4 0
d 3 -5 7 8 -4 -6 0
d 1 -5 7 8 3 -4 6 0
d 3 -5 7 8 0
d -1 -5 7 8 6 -3 -4 0
d -3 -5 7 8 -4 6 0
d 1 -5 7 8 6 -3 4 0
d 6 -5 7 8 -3 0
d -1 -5 7 8 4 -6 -3 0
d -3 -5 7 8 4 -6 0
d 1 -5 7 8 -3 -6 -4 0
d -5 8 7 0
d -1 -4 7 5 8 -6 -3 0
d -6 -4 7 5 8 -3 0
d 1 -4 7 5 8 -6 3 0
d -6 -4 7 5 8 0
d -1 -4 7 5 8 3 6 0
d 3 -4 7 5 8 6 0
d 1 -4 7 5 8 6 -3 0
d -4 8 7 5 0
d -1 -3 7 5 4 8 6 0
d 6 -3 7 5 4 8 0
d 1 -3 7 5 4 8 -6 0
d -3 8 7 5 4 0
d -1 -6 7 5 4 3 8 0
d -6 8 7 5 4 3 0
d 1 8 7 5 4 3 6 0
