data/evidence/ss_sat/proofs/scaled_cadical_lrat/xor_parity_8_unsat.cadical.lrat
257 -2 -8 7 5 4 3 6 0 66 194 0
258 6 -8 7 5 4 3 0 257 130 2 0
259 2 -8 -7 6 4 3 5 0 132 4 0
260 5 -8 6 4 3 0 258 259 68 196 0
261 -1 -8 3 4 -7 -6 5 0 136 200 0
262 5 -8 3 -7 -6 4 0 261 8 72 0
263 1 -8 7 5 4 3 -6 0 6 70 0
264 5 -8 3 4 0 260 262 263 134 198 0
265 -1 -8 7 5 4 -3 -6 0 230 166 0
266 -6 -8 7 5 4 -3 0 265 38 102 0
267 1 -8 7 5 4 -3 6 0 34 98 0
268 -3 -8 7 5 4 0 266 267 226 162 0
269 -1 -8 6 4 -3 -7 5 0 228 164 0
270 5 -8 6 4 -7 -3 0 269 36 100 0
271 1 -8 -3 5 -6 -7 4 0 40 104 0
272 5 -8 4 0 264 268 270 271 232 168 0
273 -1 -8 -7 -3 5 -6 -4 0 248 184 0
274 -4 -8 -7 -6 -3 5 0 273 56 120 0
275 1 -8 -7 -4 3 -6 5 0 24 88 0
276 5 -8 -7 -6 -4 0 274 275 152 216 0
277 -1 -8 -7 6 -4 5 3 0 148 212 0
278 3 -8 6 -7 -4 5 0 277 20 84 0
279 1 -8 -7 6 5 -4 -3 0 52 116 0
280 5 -8 -7 -4 0 276 278 279 244 180 0
281 -1 -8 7 5 -4 6 -3 0 242 178 0
282 -3 -8 7 5 -4 6 0 281 50 114 0
283 1 -8 7 5 -4 -6 -3 0 54 118 0
284 -3 -8 7 5 -4 0 282 283 246 182 0
285 -1 -8 7 5 -6 -4 3 0 150 214 0
286 3 -8 7 5 -4 -6 0 285 22 86 0
287 1 -8 7 5 -4 6 3 0 18 82 0
288 5 -8 0 272 280 284 286 287 146 210 0
289 -1 -8 7 -5 3 -4 6 0 154 218 0
290 6 -8 7 3 -5 -4 0 289 26 90 0
291 1 -8 7 -5 3 4 6 0 10 74 0
292 6 -8 7 -5 3 0 290 291 138 202 0
293 -1 -8 6 4 3 -7 -5 0 140 204 0
294 -5 -8 6 4 -7 3 0 293 12 76 0
295 1 -8 6 -4 -5 -7 3 0 28 92 0
296 3 -8 6 -5 0 292 294 295 156 220 0
297 -1 -8 6 -7 -5 -4 -3 0 252 188 0
298 -3 -8 -7 6 -4 -5 0 297 124 60 0
299 1 -8 6 -7 4 -3 -5 0 44 108 0
300 -3 -8 6 -7 -5 0 298 299 236 172 0
301 -1 -8 7 -3 -5 6 4 0 234 170 0
302 4 -8 7 -5 -3 6 0 301 42 106 0
303 1 -8 7 -5 -3 6 -4 0 122 58 0
304 -5 -8 6 0 296 300 302 303 250 186 0
305 -1 -8 7 -3 -5 -6 -4 0 254 190 0
306 -4 -8 7 -5 -3 -6 0 305 126 62 0
307 1 -8 7 -5 -4 3 -6 0 30 94 0
308 -6 -8 7 -5 -4 0 306 307 158 222 0
309 -1 -8 -4 3 -6 -7 -5 0 160 224 0
310 -5 -8 -6 3 -7 -4 0 309 96 32 0
311 1 -8 -6 -3 -7 -5 -4 0 128 64 0
312 -4 -8 -5 -6 0 308 310 311 256 192 0
313 -1 -8 -6 -3 -5 -7 4 0 240 176 0
314 4 -8 -7 -6 -3 -5 0 313 48 112 0
315 1 -8 7 -3 -5 -6 4 0 46 110 0
316 4 -8 -6 -3 -5 0 314 315 238 174 0
317 -1 -8 7 3 4 -5 -6 0 142 206 0
318 -6 -8 7 -5 3 4 0 317 78 14 0
319 1 -8 -6 4 3 -7 -5 0 80 16 0
320 -8 0 288 304 312 316 318 319 144 208 0
321 -1 -7 8 4 3 -6 -5 0 143 207 0
322 -6 -7 8 -5 3 4 0 321 15 79 0
323 1 -7 8 4 3 -6 5 0 7 71 0
324 -6 -7 8 3 4 0 322 323 135 199 0
325 -1 -7 8 5 -6 3 -4 0 151 215 0
326 3 -7 8 5 -4 -6 0 325 23 87 0
327 1 -7 8 -5 3 -6 -4 0 95 31 0
328 -6 -7 8 3 0 324 326 327 159 223 0
329 -1 -7 8 -5 -3 -6 -4 0 255 191 0
330 -4 -7 8 -3 -5 -6 0 329 63 127 0
331 1 -7 8 -5 -3 -6 4 0 47 111 0
332 -6 -7 8 -5 -3 0 330 331 239 175 0
333 -1 -7 8 5 4 -6 -3 0 231 167 0
334 -6 -7 8 5 4 -3 0 333 39 103 0
335 1 -7 8 5 -6 -3 -4 0 55 119 0
336 -6 -7 8 0 328 332 334 335 247 183 0
337 -1 -7 8 5 -4 6 -3 0 243 179 0
338 -3 -7 8 5 -4 6 0 337 51 115 0
339 1 -7 8 5 -4 6 3 0 19 83 0
340 6 -7 8 5 -4 0 338 339 147 211 0
341 -1 -7 8 -4 3 6 -5 0 155 219 0
342 6 -7 8 3 -5 -4 0 341 27 91 0
343 1 -7 8 -4 -5 6 -3 0 123 59 0
344 6 -7 8 -4 0 340 342 343 251 187 0
345 -1 -7 8 -3 6 4 -5 0 235 171 0
346 4 -7 8 -5 -3 6 0 345 43 107 0
347 1 -7 8 -3 6 4 5 0 35 99 0
348 4 -7 8 -3 6 0 346 347 227 163 0
349 -1 -7 8 5 4 3 6 0 131 195 0
350 6 -7 8 5 4 3 0 349 67 3 0
351 1 -7 8 4 3 6 -5 0 11 75 0
352 -7 8 0 336 344 348 350 351 139 203 0
353 -7 0 320 352 0
354 -1 -5 7 8 4 3 6 0 137 201 0
355 6 -5 7 8 4 3 0 354 9 73 0
356 1 -5 7 8 4 3 -6 0 77 13 0
357 3 -5 7 8 4 0 355 356 141 205 0
358 -1 -5 7 8 -6 3 -4 0 157 221 0
359 3 -5 7 8 -4 -6 0 358 29 93 0
360 1 -5 7 8 3 -4 6 0 25 89 0
361 3 -5 7 8 0 357 359 360 153 217 0
362 -1 -5 7 8 6 -3 -4 0 249 185 0
363 -3 -5 7 8 -4 6 0 362 121 57 0
364 1 -5 7 8 6 -3 4 0 41 105 0
365 6 -5 7 8 -3 0 363 364 233 169 0
366 -1 -5 7 8 4 -6 -3 0 237 173 0
367 -3 -5 7 8 4 -6 0 366 45 109 0
368 1 -5 7 8 -3 -6 -4 0 125 61 0
369 -5 8 7 0 361 365 367 368 253 189 0
370 -5 0 353 320 369 0
371 -1 -4 7 5 8 -6 -3 0 245 181 0
372 -6 -4 7 5 8 -3 0 371 53 117 0
373 1 -4 7 5 8 -6 3 0 21 85 0
374 -6 -4 7 5 8 0 372 373 149 213 0
375 -1 -4 7 5 8 3 6 0 145 209 0
376 3 -4 7 5 8 6 0 375 17 81 0
377 1 -4 7 5 8 6 -3 0 49 113 0
378 -4 8 7 5 0 374 376 377 241 177 0
379 -4 0 370 353 320 378 0
380 -1 -3 7 5 4 8 6 0 225 161 0
381 6 -3 7 5 4 8 0 380 33 97 0
382 1 -3 7 5 4 8 -6 0 37 101 0
383 -3 8 7 5 4 0 381 382 229 165 0
384 -3 0 379 370 353 320 383 0
385 -1 -6 7 5 4 3 8 0 133 197 0
386 -6 8 7 5 4 3 0 385 5 69 0
387 -6 0 384 379 370 353 320 386 0
388 1 8 7 5 4 3 6 0 1 65 0
389 1 0 387 384 379 370 353 320 388 0
390 2 0 387 384 379 370 353 320 389 129 0
391 0 387 384 379 370 353 320 390 389 193 0
